ALGO = Fast
EDIFF = 0.0001
EDIFFG=-0.5
ENCUT = 500
IBRION = 2
ISIF = 2
ISMEAR = 1
ISPIN = 1
LASPH = True
#LORBIT = None
LREAL = Auto
LWAVE = False
NELM = 60
NSW = 50
PREC = Normal
SIGMA = 0.2
#KPAR=4
KPAR=4
NCORE=8
#NSIM=8
#ML_LMLFF = .TRUE.
#ML_MODE = train
LCHARG = .FALSE.
